(set-logic QF_SLIA)
(set-option :produce-models true)
(declare-const X String)
; /filename\s*=\s*[^\r\n]*?\u{2e}application[\u{22}\u{27}\u{3b}\s\r\n]/i
(assert (str.in_re X (re.++ (str.to_re "/filename") (re.* (re.union (str.to_re " ") (str.to_re "\u{09}") (str.to_re "\u{0a}") (str.to_re "\u{0c}") (str.to_re "\u{0d}"))) (str.to_re "=") (re.* (re.union (str.to_re " ") (str.to_re "\u{09}") (str.to_re "\u{0a}") (str.to_re "\u{0c}") (str.to_re "\u{0d}"))) (re.* (re.union (str.to_re "\u{0d}") (str.to_re "\u{0a}"))) (str.to_re ".application") (re.union (str.to_re "\u{22}") (str.to_re "'") (str.to_re ";") (str.to_re "\u{0d}") (str.to_re "\u{0a}") (str.to_re " ") (str.to_re "\u{09}") (str.to_re "\u{0a}") (str.to_re "\u{0c}") (str.to_re "\u{0d}")) (str.to_re "/i\u{0a}"))))
; ^(\+65)?\d{8}$
(assert (str.in_re X (re.++ (re.opt (str.to_re "+65")) ((_ re.loop 8 8) (re.range "0" "9")) (str.to_re "\u{0a}"))))
; /\u{2e}3gp([\?\u{5c}\u{2f}]|$)/smiU
(assert (str.in_re X (re.++ (str.to_re "/.3gp") (re.union (str.to_re "?") (str.to_re "\u{5c}") (str.to_re "/")) (str.to_re "/smiU\u{0a}"))))
; /filename=[^\n]*\u{2e}pmd/i
(assert (not (str.in_re X (re.++ (str.to_re "/filename=") (re.* (re.comp (str.to_re "\u{0a}"))) (str.to_re ".pmd/i\u{0a}")))))
(assert (> (str.len X) 10))
(check-sat)
